Minimize
  0.0833333333333333 y_0 + 0.0454545454545455 y_1 + 0.0625 y_2 + 0.0625 y_3
   + 0.125 y_4 + 0.0476190476190476 y_5 + 0.1 y_6 + 0.0454545454545455 y_7
   + 0.04 y_8 + 0.0833333333333333 y_9 + 0.0454545454545455 y_10
   + 0.1111111111111111 y_11 + 0.0434782608695652 y_12
   + 0.0526315789473684 y_13 + 0.0454545454545455 y_14
   + 0.0833333333333333 y_15 + 0.0384615384615385 y_16
   + 0.0769230769230769 y_17 + 0.0833333333333333 y_18
   + 0.037037037037037 y_19 + 0.0384615384615385 y_20
   + 0.1666666666666667 y_21 + 0.0588235294117647 y_22 + 0.05 y_23
   + 0.0714285714285714 y_24 + 0.0476190476190476 y_25
   + 0.0909090909090909 y_26 + 0.0909090909090909 y_27 + 0.1 y_28
   + 0.0555555555555556 y_29 + 0.04 y_30 + 0.0555555555555556 y_31
   + 0.1 y_32 + 0.0625 y_33 + 0.05 y_34 + 0.0666666666666667 y_35
   + 0.0714285714285714 y_36 + 0.0476190476190476 y_37
   + 0.0909090909090909 y_38 + 0.05 y_39 + 0.1428571428571428 y_40
   + 0.2 y_41 + 0.0714285714285714 y_42 + 0.0476190476190476 y_43
   + 0.0666666666666667 y_44 + 0.1111111111111111 y_45
   + 0.0833333333333333 y_46 + 0.0909090909090909 y_47
   + 0.0384615384615385 y_48 + 0.0476190476190476 y_49
   + 0.0384615384615385 y_50 + 0.0434782608695652 y_51
   + 0.0714285714285714 y_52 + 0.05 y_53 + 0.04 y_54
   + 0.0454545454545455 y_55 + 0.0625 y_56 + 0.05 y_57
   + 0.1666666666666667 y_58 + 0.0833333333333333 y_59
   + 0.1428571428571428 y_60 + 0.0434782608695652 y_61 + 0.0625 y_62
   + 0.0588235294117647 y_63 + 0.5 y_64 + 0.0476190476190476 y_65
   + 0.0555555555555556 y_66 + 0.05 y_67 + 0.04 y_68 + 0.05 y_69
   + 0.0625 y_70 + 0.0416666666666667 y_71 + 0.0625 y_72
   + 0.0476190476190476 y_73 + 0.1 y_74 + 0.1 y_75
   + 0.0909090909090909 y_76 + 0.0384615384615385 y_77 + 0.1 y_78
   + 0.0625 y_79 + 0.04 y_80 + 0.0476190476190476 y_81
   + 0.1428571428571428 y_82 + 0.25 y_83 + 0.2 y_84 + 0.0625 y_85
   + 0.0526315789473684 y_86 + 0.037037037037037 y_87
   + 0.0833333333333333 y_88 + 0.0909090909090909 y_89
   + 0.1111111111111111 y_90 + 0.0714285714285714 y_91
   + 0.0588235294117647 y_92 + 0.0714285714285714 y_93
   + 0.0909090909090909 y_94 + 0.0476190476190476 y_95
   + 0.0476190476190476 y_96 + 0.0526315789473684 y_97
   + 0.0588235294117647 y_98 + 0.0833333333333333 y_99
   + 0.0714285714285714 y_100 + 0.05 y_101 + 0.0476190476190476 y_102
   + 0.0555555555555556 y_103 + 0.0625 y_104 + 0.0714285714285714 y_105
   + 0.0833333333333333 y_106 + 0.0769230769230769 y_107
   + 0.0555555555555556 y_108 + 0.0416666666666667 y_109
   + 0.0714285714285714 y_110 + 0.0909090909090909 y_111
   + 0.0833333333333333 y_112 + 0.0588235294117647 y_113
   + 0.0476190476190476 y_114 + 0.0526315789473684 y_115 + 0.2 y_116
   + 0.1111111111111111 y_117 + 0.0909090909090909 y_118
   + 0.0434782608695652 y_119 + 0.1111111111111111 y_120
   + 0.0833333333333333 y_121 + 0.0714285714285714 y_122 + 0.125 y_123
   + 0.0833333333333333 y_124 + 0.05 y_125 + 0.1666666666666667 y_126
   + 0.0833333333333333 y_127 + 0.05 y_128 + 0.0909090909090909 y_129
   + 0.0625 y_130 + 0.0416666666666667 y_131 + 0.0526315789473684 y_132
   + 0.0714285714285714 y_133 + 0.1428571428571428 y_134
   + 0.0526315789473684 y_135 + 0.0625 y_136 + 0.1666666666666667 y_137
   + 0.05 y_138 + 0.1 y_139 + 0.0909090909090909 y_140
   + 0.0588235294117647 y_141 + 0.0476190476190476 y_142
   + 0.0476190476190476 y_143 + 0.0555555555555556 y_144
   + 0.0476190476190476 y_145 + 0.0588235294117647 y_146
   + 0.1111111111111111 y_147 + 0.3333333333333333 y_148
   + 0.0476190476190476 y_149 + 0.0714285714285714 y_150
   + 0.0476190476190476 y_151 + 0.05 y_152 + 0.0833333333333333 y_153
   + 0.0769230769230769 y_154 + 0.05 y_155 + 0.0714285714285714 y_156
   + 0.05 y_157 + 0.0714285714285714 y_158 + 0.0909090909090909 y_159
   + 0.0769230769230769 y_160 + 0.05 y_161 + 0.0476190476190476 y_162
   + 0.0588235294117647 y_163 + 0.25 y_164 + 0.1111111111111111 y_165
   + 0.0476190476190476 y_166 + 0.0454545454545455 y_167 + 0.1 y_168
   + 0.0588235294117647 y_169 + 0.0416666666666667 y_170 + 0.125 y_171
   + 0.0454545454545455 y_172 + 0.05 y_173 + 0.0476190476190476 y_174
   + 0.0555555555555556 y_175 + 0.0714285714285714 y_176
   + 0.0909090909090909 y_177 + 0.0416666666666667 y_178 + 0.0625 y_179
   + 0.0588235294117647 y_180 + 0.0625 y_181 + 0.0454545454545455 y_182
   + 0.0555555555555556 y_183 + 0.1111111111111111 y_184
   + 0.0416666666666667 y_185 + 0.0384615384615385 y_186
   + 0.0588235294117647 y_187 + 0.0714285714285714 y_188 + 0.05 y_189
   + 0.0666666666666667 y_190 + 0.0476190476190476 y_191 + 0.0625 y_192
   + 0.1 y_193 + 0.0555555555555556 y_194 + 0.0526315789473684 y_195
   + 0.0555555555555556 y_196 + y_197 + 0.3333333333333333 y_198
   + 0.0526315789473684 y_199 - 16.37124481530693 Constant
Subject To
 c_0: y_159 = 1
 c_1_0: y_0 + y_118 + y_127 + y_153 + y_154 + y_156 >= 1
 c_1_1: y_1 + y_7 + y_12 + y_37 + y_51 + y_101 + y_167 + y_182 + y_185
   >= 1
 c_1_2: y_2 + y_105 + y_133 + y_180 + y_196 >= 1
 c_1_3: y_3 + y_35 + y_36 + y_62 + y_63 + y_130 + y_146 + y_169 + y_179
   >= 1
 c_1_4: y_4 + y_60 + y_78 + y_147 + y_184 >= 1
 c_1_5: y_5 + y_23 + y_57 >= 1
 c_1_6: y_6 + y_45 + y_75 + y_117 + y_120 + y_123 + y_129 + y_171 + y_193
   >= 1
 c_1_7: y_1 + y_7 + y_12 + y_37 + y_43 + y_51 + y_167 + y_182 + y_191 >= 1
 c_1_8: y_8 + y_16 + y_20 + y_109 + y_119 + y_131 + y_170 + y_186 >= 1
 c_1_9: y_9 + y_38 + y_47 + y_76 + y_88 + y_89 + y_106 + y_107 + y_112
   + y_159 + y_160 >= 1
 c_1_10: y_10 + y_14 + y_73 + y_149 + y_174 >= 1
 c_1_11: y_11 + y_32 + y_74 >= 1
 c_1_12: y_1 + y_7 + y_12 + y_43 + y_51 + y_54 + y_167 + y_182 + y_185
   >= 1
 c_1_13: y_13 + y_39 + y_67 + y_146 + y_173 >= 1
 c_1_14: y_10 + y_14 + y_25 + y_49 + y_69 + y_73 + y_95 + y_114 + y_143
   + y_149 + y_151 + y_161 + y_162 + y_174 >= 1
 c_1_15: y_15 + y_18 + y_24 + y_26 + y_46 + y_59 + y_99 + y_111 + y_140
   + y_158 + y_177 >= 1
 c_1_16: y_8 + y_16 + y_20 + y_109 + y_131 + y_170 + y_186 >= 1
 c_1_17: y_17 + y_52 + y_91 + y_93 + y_100 + y_150 + y_176 >= 1
 c_1_18: y_15 + y_18 + y_24 + y_26 + y_59 + y_99 + y_111 + y_140 + y_158
   + y_177 >= 1
 c_1_19: y_19 + y_48 + y_87 >= 1
 c_1_20: y_8 + y_16 + y_20 + y_54 + y_131 + y_185 + y_186 >= 1
 c_1_21: y_21 + y_41 + y_60 >= 1
 c_1_22: y_22 + y_85 + y_113 + y_163 + y_187 >= 1
 c_1_23: y_5 + y_23 + y_29 + y_57 + y_97 + y_115 + y_199 >= 1
 c_1_24: y_15 + y_18 + y_24 + y_59 + y_99 + y_158 + y_188 >= 1
 c_1_25: y_14 + y_25 + y_49 + y_53 + y_95 + y_114 + y_143 + y_149 + y_151
   + y_161 + y_162 + y_166 + y_174 >= 1
 c_1_26: y_15 + y_18 + y_26 + y_46 + y_59 + y_99 + y_111 + y_140 + y_177
   >= 1
 c_1_27: y_27 + y_28 + y_38 + y_78 + y_88 + y_89 + y_94 + y_121 + y_147
   + y_159 >= 1
 c_1_28: y_27 + y_28 + y_78 + y_94 + y_111 + y_121 + y_140 + y_147 + y_184
   >= 1
 c_1_29: y_23 + y_29 + y_66 + y_135 + y_144 + y_183 >= 1
 c_1_30: y_30 + y_48 + y_50 + y_54 + y_68 + y_77 + y_80 >= 1
 c_1_31: y_31 + y_66 + y_103 + y_130 + y_138 + y_155 + y_169 + y_179
   + y_195 >= 1
 c_1_32: y_11 + y_32 + y_74 + y_75 + y_117 + y_118 + y_127 >= 1
 c_1_33: y_33 + y_92 + y_104 + y_136 + y_141 + y_181 >= 1
 c_1_34: y_34 + y_37 + y_43 + y_101 + y_115 + y_157 + y_191 >= 1
 c_1_35: y_3 + y_35 + y_36 + y_156 >= 1
 c_1_36: y_3 + y_35 + y_36 + y_122 + y_154 + y_156 >= 1
 c_1_37: y_1 + y_7 + y_34 + y_37 + y_43 + y_51 + y_101 + y_167 + y_182
   >= 1
 c_1_38: y_9 + y_27 + y_38 + y_47 + y_88 + y_89 + y_106 + y_107 + y_112
   + y_121 + y_159 + y_160 >= 1
 c_1_39: y_13 + y_39 + y_67 + y_173 >= 1
 c_1_40: y_40 + y_82 + y_123 + y_134 + y_137 + y_171 >= 1
 c_1_41: y_21 + y_41 + y_58 + y_83 + y_116 + y_164 + y_198 >= 1
 c_1_42: y_42 + y_46 + y_110 + y_188 >= 1
 c_1_43: y_7 + y_12 + y_34 + y_37 + y_43 + y_51 + y_55 + y_65 + y_157
   + y_182 + y_191 >= 1
 c_1_44: y_44 + y_52 + y_85 + y_150 + y_163 + y_176 + y_190 >= 1
 c_1_45: y_6 + y_45 + y_75 + y_117 + y_120 + y_123 + y_171 + y_193 >= 1
 c_1_46: y_15 + y_26 + y_42 + y_46 + y_59 + y_99 + y_129 + y_177 + y_193
   >= 1
 c_1_47: y_9 + y_38 + y_47 + y_76 + y_89 + y_106 + y_112 + y_139 + y_159
   + y_160 + y_165 + y_168 >= 1
 c_1_48: y_19 + y_30 + y_48 + y_50 + y_54 + y_68 + y_77 + y_80 + y_87 >= 1
 c_1_49: y_14 + y_25 + y_49 + y_53 + y_95 + y_114 + y_143 + y_149 + y_151
   + y_161 + y_162 + y_166 + y_174 >= 1
 c_1_50: y_30 + y_48 + y_50 + y_68 + y_77 + y_80 >= 1
 c_1_51: y_1 + y_7 + y_12 + y_37 + y_43 + y_51 + y_167 + y_182 + y_185
   >= 1
 c_1_52: y_17 + y_44 + y_52 + y_91 + y_93 + y_100 + y_150 + y_176 >= 1
 c_1_53: y_25 + y_49 + y_53 + y_95 + y_114 + y_143 + y_149 + y_151 + y_161
   + y_162 + y_166 + y_174 >= 1
 c_1_54: y_12 + y_20 + y_30 + y_48 + y_54 + y_68 + y_87 + y_131 + y_185
   >= 1
 c_1_55: y_43 + y_55 + y_61 + y_65 + y_157 + y_191 >= 1
 c_1_56: y_56 + y_72 + y_79 + y_130 + y_179 + y_183 + y_192 >= 1
 c_1_57: y_5 + y_23 + y_57 + y_65 + y_97 + y_115 + y_157 + y_191 + y_199
   >= 1
 c_1_58: y_41 + y_58 + y_83 + y_116 + y_164 >= 1
 c_1_59: y_15 + y_18 + y_24 + y_26 + y_46 + y_59 + y_99 + y_111 + y_140
   + y_177 >= 1
 c_1_60: y_4 + y_21 + y_60 >= 1
 c_1_61: y_55 + y_61 + y_65 + y_71 + y_178 >= 1
 c_1_62: y_3 + y_62 + y_63 + y_79 + y_130 + y_169 + y_179 + y_192 >= 1
 c_1_63: y_3 + y_62 + y_63 + y_146 + y_169 + y_179 >= 1
 c_1_64: y_64 + y_83 + y_148 + y_164 + y_197 + y_198 >= 1
 c_1_65: y_43 + y_55 + y_57 + y_61 + y_65 + y_115 + y_157 + y_191 + y_199
   >= 1
 c_1_66: y_29 + y_31 + y_66 + y_79 + y_103 + y_135 + y_144 + y_183 + y_195
   >= 1
 c_1_67: y_13 + y_39 + y_67 + y_173 >= 1
 c_1_68: y_30 + y_48 + y_50 + y_54 + y_68 + y_77 + y_80 >= 1
 c_1_69: y_14 + y_69 + y_73 + y_114 + y_142 + y_143 + y_149 + y_161 + y_162
   + y_174 + y_189 >= 1
 c_1_70: y_70 + y_72 + y_104 >= 1
 c_1_71: y_61 + y_71 + y_178 >= 1
 c_1_72: y_56 + y_70 + y_72 + y_104 >= 1
 c_1_73: y_10 + y_14 + y_69 + y_73 + y_142 + y_143 + y_161 + y_174 + y_189
   >= 1
 c_1_74: y_11 + y_32 + y_74 >= 1
 c_1_75: y_6 + y_32 + y_45 + y_75 + y_117 + y_120 + y_129 + y_171 + y_193
   >= 1
 c_1_76: y_9 + y_47 + y_76 + y_139 + y_168 >= 1
 c_1_77: y_30 + y_48 + y_50 + y_68 + y_77 + y_80 >= 1
 c_1_78: y_4 + y_27 + y_28 + y_78 + y_94 + y_111 + y_140 + y_147 + y_184
   >= 1
 c_1_79: y_56 + y_62 + y_66 + y_79 + y_103 + y_130 + y_179 + y_192 >= 1
 c_1_80: y_30 + y_48 + y_50 + y_68 + y_77 + y_80 >= 1
 c_1_81: y_81 + y_138 + y_145 + y_155 >= 1
 c_1_82: y_40 + y_82 + y_123 + y_134 + y_137 >= 1
 c_1_83: y_41 + y_58 + y_64 + y_83 + y_116 + y_137 + y_148 + y_164 + y_198
   >= 1
 c_1_84: y_84 + y_126 >= 1
 c_1_85: y_22 + y_44 + y_85 + y_163 + y_187 + y_190 >= 1
 c_1_86: y_86 + y_98 + y_125 + y_128 + y_132 + y_152 + y_180 + y_196 >= 1
 c_1_87: y_19 + y_48 + y_54 + y_87 >= 1
 c_1_88: y_9 + y_27 + y_38 + y_88 + y_89 + y_106 + y_107 + y_112 + y_121
   + y_159 + y_160 >= 1
 c_1_89: y_9 + y_27 + y_38 + y_47 + y_88 + y_89 + y_106 + y_107 + y_112
   + y_121 + y_159 >= 1
 c_1_90: y_90 + y_139 + y_165 + y_168 >= 1
 c_1_91: y_17 + y_52 + y_91 + y_93 + y_100 + y_150 + y_176 >= 1
 c_1_92: y_33 + y_92 + y_136 + y_141 + y_181 + y_194 >= 1
 c_1_93: y_17 + y_52 + y_91 + y_93 + y_100 + y_150 + y_176 >= 1
 c_1_94: y_27 + y_28 + y_78 + y_94 + y_111 + y_121 + y_140 + y_147 + y_184
   >= 1
 c_1_95: y_14 + y_25 + y_49 + y_53 + y_95 + y_114 + y_143 + y_149 + y_151
   + y_161 + y_162 + y_174 >= 1
 c_1_96: y_96 + y_138 + y_145 >= 1
 c_1_97: y_23 + y_57 + y_97 + y_115 + y_141 + y_157 + y_199 >= 1
 c_1_98: y_86 + y_98 + y_108 + y_132 + y_180 + y_196 >= 1
 c_1_99: y_15 + y_18 + y_24 + y_26 + y_46 + y_59 + y_99 + y_111 + y_140
   + y_177 >= 1
 c_1_100: y_17 + y_52 + y_91 + y_93 + y_100 + y_150 + y_176 >= 1
 c_1_101: y_1 + y_34 + y_37 + y_101 >= 1
 c_1_102: y_102 + y_128 + y_152 >= 1
 c_1_103: y_31 + y_66 + y_79 + y_103 + y_130 + y_155 + y_169 + y_179
   + y_192 + y_195 >= 1
 c_1_104: y_33 + y_70 + y_72 + y_104 + y_136 + y_141 + y_158 + y_188 >= 1
 c_1_105: y_2 + y_105 + y_133 + y_160 >= 1
 c_1_106: y_9 + y_38 + y_47 + y_88 + y_89 + y_106 + y_107 + y_112 + y_159
   + y_160 >= 1
 c_1_107: y_9 + y_38 + y_88 + y_89 + y_106 + y_107 + y_112 + y_121 + y_159
   + y_160 >= 1
 c_1_108: y_98 + y_108 + y_175 >= 1
 c_1_109: y_8 + y_16 + y_109 + y_119 + y_131 + y_170 + y_185 + y_186 >= 1
 c_1_110: y_42 + y_110 >= 1
 c_1_111: y_15 + y_18 + y_26 + y_28 + y_59 + y_78 + y_94 + y_99 + y_111
   + y_140 + y_177 + y_184 >= 1
 c_1_112: y_9 + y_38 + y_47 + y_88 + y_89 + y_106 + y_107 + y_112 + y_159
   + y_160 >= 1
 c_1_113: y_22 + y_113 + y_194 >= 1
 c_1_114: y_14 + y_25 + y_49 + y_53 + y_69 + y_95 + y_114 + y_143 + y_149
   + y_151 + y_161 + y_162 + y_174 >= 1
 c_1_115: y_23 + y_34 + y_57 + y_65 + y_97 + y_115 + y_157 + y_191 + y_199
   >= 1
 c_1_116: y_41 + y_58 + y_83 + y_116 + y_137 + y_148 + y_164 + y_198 >= 1
 c_1_117: y_6 + y_32 + y_45 + y_75 + y_117 + y_120 + y_123 + y_129 + y_171
   + y_193 >= 1
 c_1_118: y_0 + y_32 + y_118 + y_124 + y_127 + y_153 >= 1
 c_1_119: y_8 + y_109 + y_119 + y_170 >= 1
 c_1_120: y_6 + y_45 + y_75 + y_117 + y_120 + y_123 + y_129 + y_171 + y_193
   >= 1
 c_1_121: y_27 + y_28 + y_38 + y_88 + y_89 + y_94 + y_107 + y_121 + y_159
   >= 1
 c_1_122: y_36 + y_122 + y_124 + y_156 >= 1
 c_1_123: y_6 + y_40 + y_45 + y_82 + y_117 + y_120 + y_123 + y_134 + y_171
   >= 1
 c_1_124: y_118 + y_122 + y_124 + y_127 + y_153 >= 1
 c_1_125: y_86 + y_125 + y_128 + y_142 + y_189 >= 1
 c_1_126: y_84 + y_126 >= 1
 c_1_127: y_0 + y_32 + y_118 + y_124 + y_127 + y_153 + y_154 >= 1
 c_1_128: y_86 + y_102 + y_125 + y_128 + y_132 + y_152 + y_189 >= 1
 c_1_129: y_6 + y_46 + y_75 + y_117 + y_120 + y_129 + y_193 >= 1
 c_1_130: y_3 + y_31 + y_56 + y_62 + y_79 + y_103 + y_130 + y_169 + y_179
   + y_192 >= 1
 c_1_131: y_8 + y_16 + y_20 + y_54 + y_109 + y_131 + y_167 + y_185 + y_186
   >= 1
 c_1_132: y_86 + y_98 + y_128 + y_132 + y_152 + y_180 + y_196 >= 1
 c_1_133: y_2 + y_105 + y_133 >= 1
 c_1_134: y_40 + y_82 + y_123 + y_134 + y_137 + y_171 >= 1
 c_1_135: y_29 + y_66 + y_135 + y_144 + y_183 + y_195 >= 1
 c_1_136: y_33 + y_92 + y_104 + y_136 + y_141 + y_158 + y_181 >= 1
 c_1_137: y_40 + y_82 + y_83 + y_116 + y_134 + y_137 >= 1
 c_1_138: y_31 + y_81 + y_96 + y_138 + y_145 + y_155 + y_195 >= 1
 c_1_139: y_47 + y_76 + y_90 + y_139 + y_165 + y_168 >= 1
 c_1_140: y_15 + y_18 + y_26 + y_28 + y_59 + y_78 + y_94 + y_99 + y_111
   + y_140 + y_177 >= 1
 c_1_141: y_33 + y_92 + y_97 + y_104 + y_136 + y_141 + y_181 >= 1
 c_1_142: y_69 + y_73 + y_125 + y_142 + y_189 >= 1
 c_1_143: y_14 + y_25 + y_49 + y_53 + y_69 + y_73 + y_95 + y_114 + y_143
   + y_149 + y_151 + y_161 + y_162 + y_174 >= 1
 c_1_144: y_29 + y_66 + y_135 + y_144 + y_183 + y_195 >= 1
 c_1_145: y_81 + y_96 + y_138 + y_145 >= 1
 c_1_146: y_3 + y_13 + y_63 + y_146 >= 1
 c_1_147: y_4 + y_27 + y_28 + y_78 + y_94 + y_147 + y_184 >= 1
 c_1_148: y_64 + y_83 + y_116 + y_148 + y_164 + y_197 + y_198 >= 1
 c_1_149: y_10 + y_14 + y_25 + y_49 + y_53 + y_69 + y_95 + y_114 + y_143
   + y_149 + y_151 + y_161 + y_162 + y_174 >= 1
 c_1_150: y_17 + y_44 + y_52 + y_91 + y_93 + y_100 + y_150 + y_176 >= 1
 c_1_151: y_14 + y_25 + y_49 + y_53 + y_95 + y_114 + y_143 + y_149 + y_151
   + y_161 + y_162 + y_166 + y_174 >= 1
 c_1_152: y_86 + y_102 + y_128 + y_132 + y_152 >= 1
 c_1_153: y_0 + y_118 + y_124 + y_127 + y_153 >= 1
 c_1_154: y_0 + y_36 + y_127 + y_154 + y_156 >= 1
 c_1_155: y_31 + y_81 + y_103 + y_138 + y_155 + y_195 >= 1
 c_1_156: y_0 + y_35 + y_36 + y_122 + y_154 + y_156 >= 1
 c_1_157: y_34 + y_43 + y_55 + y_57 + y_65 + y_97 + y_115 + y_157 + y_191
   + y_199 >= 1
 c_1_158: y_15 + y_18 + y_24 + y_104 + y_136 + y_158 + y_188 >= 1
 c_1_159: y_9 + y_27 + y_38 + y_47 + y_88 + y_89 + y_106 + y_107 + y_112
   + y_121 + y_159 + y_160 + y_168 >= 1
 c_1_160: y_9 + y_38 + y_47 + y_88 + y_105 + y_106 + y_107 + y_112 + y_159
   + y_160 >= 1
 c_1_161: y_14 + y_25 + y_49 + y_53 + y_69 + y_73 + y_95 + y_114 + y_143
   + y_149 + y_151 + y_161 + y_162 + y_174 >= 1
 c_1_162: y_14 + y_25 + y_49 + y_53 + y_69 + y_95 + y_114 + y_143 + y_149
   + y_151 + y_161 + y_162 + y_174 >= 1
 c_1_163: y_22 + y_44 + y_85 + y_163 + y_187 + y_190 >= 1
 c_1_164: y_41 + y_58 + y_64 + y_83 + y_116 + y_148 + y_164 + y_198 >= 1
 c_1_165: y_47 + y_90 + y_139 + y_165 + y_168 >= 1
 c_1_166: y_25 + y_49 + y_53 + y_151 + y_166 >= 1
 c_1_167: y_1 + y_7 + y_12 + y_37 + y_51 + y_131 + y_167 + y_182 + y_185
   >= 1
 c_1_168: y_47 + y_76 + y_90 + y_139 + y_159 + y_165 + y_168 >= 1
 c_1_169: y_3 + y_31 + y_62 + y_63 + y_103 + y_130 + y_169 + y_179 + y_192
   >= 1
 c_1_170: y_8 + y_16 + y_109 + y_119 + y_170 >= 1
 c_1_171: y_6 + y_40 + y_45 + y_75 + y_117 + y_120 + y_123 + y_134 + y_171
   + y_193 >= 1
 c_1_172: y_172 >= 1
 c_1_173: y_13 + y_39 + y_67 + y_173 >= 1
 c_1_174: y_10 + y_14 + y_25 + y_49 + y_53 + y_69 + y_73 + y_95 + y_114
   + y_143 + y_149 + y_151 + y_161 + y_162 + y_174 >= 1
 c_1_175: y_108 + y_175 + y_187 >= 1
 c_1_176: y_17 + y_44 + y_52 + y_91 + y_93 + y_100 + y_150 + y_176 >= 1
 c_1_177: y_15 + y_18 + y_26 + y_46 + y_59 + y_99 + y_111 + y_140 + y_177
   >= 1
 c_1_178: y_61 + y_71 + y_178 >= 1
 c_1_179: y_3 + y_31 + y_56 + y_62 + y_63 + y_79 + y_103 + y_130 + y_169
   + y_179 + y_192 >= 1
 c_1_180: y_2 + y_86 + y_98 + y_132 + y_180 + y_196 >= 1
 c_1_181: y_33 + y_92 + y_136 + y_141 + y_181 >= 1
 c_1_182: y_1 + y_7 + y_12 + y_37 + y_43 + y_51 + y_167 + y_182 + y_191
   >= 1
 c_1_183: y_29 + y_56 + y_66 + y_135 + y_144 + y_183 + y_195 >= 1
 c_1_184: y_4 + y_28 + y_78 + y_94 + y_111 + y_147 + y_184 >= 1
 c_1_185: y_1 + y_12 + y_20 + y_51 + y_54 + y_109 + y_131 + y_167 + y_185
   >= 1
 c_1_186: y_8 + y_16 + y_20 + y_109 + y_131 + y_186 >= 1
 c_1_187: y_22 + y_85 + y_163 + y_175 + y_187 >= 1
 c_1_188: y_24 + y_42 + y_104 + y_158 + y_188 >= 1
 c_1_189: y_69 + y_73 + y_125 + y_128 + y_142 + y_189 >= 1
 c_1_190: y_44 + y_85 + y_163 + y_190 >= 1
 c_1_191: y_7 + y_34 + y_43 + y_55 + y_57 + y_65 + y_115 + y_157 + y_182
   + y_191 >= 1
 c_1_192: y_56 + y_62 + y_79 + y_103 + y_130 + y_169 + y_179 + y_192 >= 1
 c_1_193: y_6 + y_45 + y_46 + y_75 + y_117 + y_120 + y_129 + y_171 + y_193
   >= 1
 c_1_194: y_92 + y_113 + y_194 >= 1
 c_1_195: y_31 + y_66 + y_103 + y_135 + y_138 + y_144 + y_155 + y_183
   + y_195 >= 1
 c_1_196: y_2 + y_86 + y_98 + y_132 + y_180 + y_196 >= 1
 c_1_197: y_64 + y_148 + y_197 + y_198 >= 1
 c_1_198: y_41 + y_64 + y_83 + y_116 + y_148 + y_164 + y_197 + y_198 >= 1
 c_1_199: y_23 + y_57 + y_65 + y_97 + y_115 + y_157 + y_199 >= 1
Bounds
 Constant = 1
Binaries
 y_0 y_1 y_2 y_3 y_4 y_5 y_6 y_7 y_8 y_9 y_10 y_11 y_12 y_13 y_14 y_15 y_16
 y_17 y_18 y_19 y_20 y_21 y_22 y_23 y_24 y_25 y_26 y_27 y_28 y_29 y_30 y_31
 y_32 y_33 y_34 y_35 y_36 y_37 y_38 y_39 y_40 y_41 y_42 y_43 y_44 y_45 y_46
 y_47 y_48 y_49 y_50 y_51 y_52 y_53 y_54 y_55 y_56 y_57 y_58 y_59 y_60 y_61
 y_62 y_63 y_64 y_65 y_66 y_67 y_68 y_69 y_70 y_71 y_72 y_73 y_74 y_75 y_76
 y_77 y_78 y_79 y_80 y_81 y_82 y_83 y_84 y_85 y_86 y_87 y_88 y_89 y_90 y_91
 y_92 y_93 y_94 y_95 y_96 y_97 y_98 y_99 y_100 y_101 y_102 y_103 y_104
 y_105 y_106 y_107 y_108 y_109 y_110 y_111 y_112 y_113 y_114 y_115 y_116
 y_117 y_118 y_119 y_120 y_121 y_122 y_123 y_124 y_125 y_126 y_127 y_128
 y_129 y_130 y_131 y_132 y_133 y_134 y_135 y_136 y_137 y_138 y_139 y_140
 y_141 y_142 y_143 y_144 y_145 y_146 y_147 y_148 y_149 y_150 y_151 y_152
 y_153 y_154 y_155 y_156 y_157 y_158 y_159 y_160 y_161 y_162 y_163 y_164
 y_165 y_166 y_167 y_168 y_169 y_170 y_171 y_172 y_173 y_174 y_175 y_176
 y_177 y_178 y_179 y_180 y_181 y_182 y_183 y_184 y_185 y_186 y_187 y_188
 y_189 y_190 y_191 y_192 y_193 y_194 y_195 y_196 y_197 y_198 y_199
End
